NAME : random32.506.tour
COMMENT : Length = 506
COMMENT : Found by LKH [Keld Helsgaun] Sat Nov 23 17:45:15 2024
TYPE : TOUR
DIMENSION : 32
TOUR_SECTION
1
11
25
9
27
32
18
17
6
16
31
22
28
29
20
7
21
5
8
10
24
26
14
15
4
13
2
19
3
30
23
12
-1
EOF
